N = 50;
MinK = 4;
Capacity = 1000;

Scale = 10;
DistanceRoundingMode = Floor;
X = array1d(0..N, [40, 25, 22, 22, 20, 20, 18, 15, 15, 10, 10, 8, 8, 5, 5, 2, 0, 0, 44, 42, 42, 40, 40, 38, 38, 35, 95, 95, 92, 90, 88, 88, 87, 85, 85, 67, 65, 65, 62, 60, 60, 58, 55, 55, 55, 20, 18, 2, 42, 42, 72]);
Y = array1d(0..N, [50, 85, 75, 85, 80, 85, 75, 75, 80, 35, 40, 40, 45, 35, 45, 40, 40, 45, 5, 10, 15, 5, 15, 5, 15, 5, 30, 35, 30, 35, 30, 35, 30, 25, 35, 85, 85, 82, 80, 80, 85, 75, 80, 85, 82, 82, 80, 45, 5, 12, 35]);

Demands = array1d(1..N, [20, 30, 10, 40, 20, 20, 20, 10, 20, 30, 40, 20, 10, 10, 20, 20, 20, 20, 40, 10, 10, 40, 30, 10, 20, 30, 20, 10, 10, 10, 20, 10, 10, 30, 20, 40, 10, 30, 10, 30, 20, 10, 20, 10, 10, 10, 10, 10, 10, 30]);

ServiceTimes = array1d(1..N, [10, 10, 10, 10, 10, 10, 10, 10, 10, 10, 10, 10, 10, 10, 10, 10, 10, 10, 10, 10, 10, 10, 10, 10, 10, 10, 10, 10, 10, 10, 10, 10, 10, 10, 10, 10, 10, 10, 10, 10, 10, 10, 10, 10, 10, 10, 10, 10, 10, 10]);

TimeWindows = array2d(1..2, 0..N, [|
    0, 591,  73, 473, 418,  40, 249, 281, 272, 236, 470,  33, 166, 359,  35,  39, 214, 359, 338, 205, 511, 158, 263,  45, 598, 348, 509,  57,  68, 131, 114, 102, 564,  51, 462, 396,  43, 530, 131,  36, 233, 207,  33, 549,  62,  37, 435,  38, 636, 423, 471 |
  960, 874, 350, 588, 913, 390, 646, 438, 581, 625, 687, 510, 399, 911, 457, 538, 415, 909, 451, 422, 682, 391, 606, 522, 883, 904, 668, 664, 349, 376, 497, 347, 797, 673, 631, 905, 712, 703, 544, 800, 544, 664, 624, 718, 491, 677, 662, 366, 904, 576, 662
|]);
